4 5 1.0 0 0 0 0 4102 4102
1 0 0 1 0
0 0 5 -1 1 2 6 -1 1 4 20 -1 1 3 11 -1 1 5 15 -1 1 1 19 
0 0 5 -1 1 4 20 -1 1 1 5 -1 1 5 6 -1 1 2 19 -1 1 3 5 
0 0 5 -1 1 2 18 -1 1 3 6 -1 1 5 17 -1 1 4 8 -1 1 1 10 
0 0 5 -1 1 3 5 -1 1 4 8 -1 1 1 11 -1 1 2 6 -1 1 5 10 
